computational_data/lp/Reg3_n40_s5.lp
Minimize
 obj: r_0 + r_1 + r_2 + r_3 + r_4 + r_5 + r_6 + r_7 + r_8 + r_9 + r_10 + r_11 + r_12 + r_13 + r_14 + r_15 + r_16 + r_17 + r_18 + r_19 + r_20 + r_21 + r_22 + r_23 + r_24 + r_25 + r_26 + r_27 + r_28 + r_29 + r_30 + r_31 + r_32 + r_33 + r_34 + r_35 + r_36 + r_37 + r_38 + r_39 + b_0 + b_1 + b_2 + b_3 + b_4 + b_5 + b_6 + b_7 + b_8 + b_9 + b_10 + b_11 + b_12 + b_13 + b_14 + b_15 + b_16 + b_17 + b_18 + b_19 + b_20 + b_21 + b_22 + b_23 + b_24 + b_25 + b_26 + b_27 + b_28 + b_29 + b_30 + b_31 + b_32 + b_33 + b_34 + b_35 + b_36 + b_37 + b_38 + b_39
Subject To
 red_nonempty: r_0 + r_1 + r_2 + r_3 + r_4 + r_5 + r_6 + r_7 + r_8 + r_9 + r_10 + r_11 + r_12 + r_13 + r_14 + r_15 + r_16 + r_17 + r_18 + r_19 + r_20 + r_21 + r_22 + r_23 + r_24 + r_25 + r_26 + r_27 + r_28 + r_29 + r_30 + r_31 + r_32 + r_33 + r_34 + r_35 + r_36 + r_37 + r_38 + r_39 >= 1
 blue_nonempty: b_0 + b_1 + b_2 + b_3 + b_4 + b_5 + b_6 + b_7 + b_8 + b_9 + b_10 + b_11 + b_12 + b_13 + b_14 + b_15 + b_16 + b_17 + b_18 + b_19 + b_20 + b_21 + b_22 + b_23 + b_24 + b_25 + b_26 + b_27 + b_28 + b_29 + b_30 + b_31 + b_32 + b_33 + b_34 + b_35 + b_36 + b_37 + b_38 + b_39 >= 1
 disjoint_0: r_0 + b_0 <= 1
 disjoint_1: r_1 + b_1 <= 1
 disjoint_2: r_2 + b_2 <= 1
 disjoint_3: r_3 + b_3 <= 1
 disjoint_4: r_4 + b_4 <= 1
 disjoint_5: r_5 + b_5 <= 1
 disjoint_6: r_6 + b_6 <= 1
 disjoint_7: r_7 + b_7 <= 1
 disjoint_8: r_8 + b_8 <= 1
 disjoint_9: r_9 + b_9 <= 1
 disjoint_10: r_10 + b_10 <= 1
 disjoint_11: r_11 + b_11 <= 1
 disjoint_12: r_12 + b_12 <= 1
 disjoint_13: r_13 + b_13 <= 1
 disjoint_14: r_14 + b_14 <= 1
 disjoint_15: r_15 + b_15 <= 1
 disjoint_16: r_16 + b_16 <= 1
 disjoint_17: r_17 + b_17 <= 1
 disjoint_18: r_18 + b_18 <= 1
 disjoint_19: r_19 + b_19 <= 1
 disjoint_20: r_20 + b_20 <= 1
 disjoint_21: r_21 + b_21 <= 1
 disjoint_22: r_22 + b_22 <= 1
 disjoint_23: r_23 + b_23 <= 1
 disjoint_24: r_24 + b_24 <= 1
 disjoint_25: r_25 + b_25 <= 1
 disjoint_26: r_26 + b_26 <= 1
 disjoint_27: r_27 + b_27 <= 1
 disjoint_28: r_28 + b_28 <= 1
 disjoint_29: r_29 + b_29 <= 1
 disjoint_30: r_30 + b_30 <= 1
 disjoint_31: r_31 + b_31 <= 1
 disjoint_32: r_32 + b_32 <= 1
 disjoint_33: r_33 + b_33 <= 1
 disjoint_34: r_34 + b_34 <= 1
 disjoint_35: r_35 + b_35 <= 1
 disjoint_36: r_36 + b_36 <= 1
 disjoint_37: r_37 + b_37 <= 1
 disjoint_38: r_38 + b_38 <= 1
 disjoint_39: r_39 + b_39 <= 1
 red_ind_0: r_0 + r_32 <= 1
 blue_ind_0: b_0 + b_32 <= 1
 red_ind_1: r_0 + r_26 <= 1
 blue_ind_1: b_0 + b_26 <= 1
 red_ind_2: r_0 + r_36 <= 1
 blue_ind_2: b_0 + b_36 <= 1
 red_ind_3: r_1 + r_11 <= 1
 blue_ind_3: b_1 + b_11 <= 1
 red_ind_4: r_1 + r_27 <= 1
 blue_ind_4: b_1 + b_27 <= 1
 red_ind_5: r_1 + r_37 <= 1
 blue_ind_5: b_1 + b_37 <= 1
 red_ind_6: r_2 + r_29 <= 1
 blue_ind_6: b_2 + b_29 <= 1
 red_ind_7: r_2 + r_5 <= 1
 blue_ind_7: b_2 + b_5 <= 1
 red_ind_8: r_2 + r_6 <= 1
 blue_ind_8: b_2 + b_6 <= 1
 red_ind_9: r_3 + r_5 <= 1
 blue_ind_9: b_3 + b_5 <= 1
 red_ind_10: r_3 + r_13 <= 1
 blue_ind_10: b_3 + b_13 <= 1
 red_ind_11: r_3 + r_22 <= 1
 blue_ind_11: b_3 + b_22 <= 1
 red_ind_12: r_4 + r_24 <= 1
 blue_ind_12: b_4 + b_24 <= 1
 red_ind_13: r_4 + r_6 <= 1
 blue_ind_13: b_4 + b_6 <= 1
 red_ind_14: r_4 + r_15 <= 1
 blue_ind_14: b_4 + b_15 <= 1
 red_ind_15: r_5 + r_18 <= 1
 blue_ind_15: b_5 + b_18 <= 1
 red_ind_16: r_6 + r_37 <= 1
 blue_ind_16: b_6 + b_37 <= 1
 red_ind_17: r_7 + r_11 <= 1
 blue_ind_17: b_7 + b_11 <= 1
 red_ind_18: r_7 + r_30 <= 1
 blue_ind_18: b_7 + b_30 <= 1
 red_ind_19: r_7 + r_14 <= 1
 blue_ind_19: b_7 + b_14 <= 1
 red_ind_20: r_8 + r_9 <= 1
 blue_ind_20: b_8 + b_9 <= 1
 red_ind_21: r_8 + r_26 <= 1
 blue_ind_21: b_8 + b_26 <= 1
 red_ind_22: r_8 + r_13 <= 1
 blue_ind_22: b_8 + b_13 <= 1
 red_ind_23: r_9 + r_17 <= 1
 blue_ind_23: b_9 + b_17 <= 1
 red_ind_24: r_9 + r_35 <= 1
 blue_ind_24: b_9 + b_35 <= 1
 red_ind_25: r_10 + r_26 <= 1
 blue_ind_25: b_10 + b_26 <= 1
 red_ind_26: r_10 + r_28 <= 1
 blue_ind_26: b_10 + b_28 <= 1
 red_ind_27: r_10 + r_37 <= 1
 blue_ind_27: b_10 + b_37 <= 1
 red_ind_28: r_11 + r_15 <= 1
 blue_ind_28: b_11 + b_15 <= 1
 red_ind_29: r_12 + r_24 <= 1
 blue_ind_29: b_12 + b_24 <= 1
 red_ind_30: r_12 + r_29 <= 1
 blue_ind_30: b_12 + b_29 <= 1
 red_ind_31: r_12 + r_31 <= 1
 blue_ind_31: b_12 + b_31 <= 1
 red_ind_32: r_13 + r_21 <= 1
 blue_ind_32: b_13 + b_21 <= 1
 red_ind_33: r_14 + r_17 <= 1
 blue_ind_33: b_14 + b_17 <= 1
 red_ind_34: r_14 + r_34 <= 1
 blue_ind_34: b_14 + b_34 <= 1
 red_ind_35: r_15 + r_31 <= 1
 blue_ind_35: b_15 + b_31 <= 1
 red_ind_36: r_16 + r_34 <= 1
 blue_ind_36: b_16 + b_34 <= 1
 red_ind_37: r_16 + r_22 <= 1
 blue_ind_37: b_16 + b_22 <= 1
 red_ind_38: r_16 + r_23 <= 1
 blue_ind_38: b_16 + b_23 <= 1
 red_ind_39: r_17 + r_38 <= 1
 blue_ind_39: b_17 + b_38 <= 1
 red_ind_40: r_18 + r_27 <= 1
 blue_ind_40: b_18 + b_27 <= 1
 red_ind_41: r_18 + r_38 <= 1
 blue_ind_41: b_18 + b_38 <= 1
 red_ind_42: r_19 + r_33 <= 1
 blue_ind_42: b_19 + b_33 <= 1
 red_ind_43: r_19 + r_36 <= 1
 blue_ind_43: b_19 + b_36 <= 1
 red_ind_44: r_19 + r_20 <= 1
 blue_ind_44: b_19 + b_20 <= 1
 red_ind_45: r_20 + r_35 <= 1
 blue_ind_45: b_20 + b_35 <= 1
 red_ind_46: r_20 + r_21 <= 1
 blue_ind_46: b_20 + b_21 <= 1
 red_ind_47: r_21 + r_30 <= 1
 blue_ind_47: b_21 + b_30 <= 1
 red_ind_48: r_22 + r_27 <= 1
 blue_ind_48: b_22 + b_27 <= 1
 red_ind_49: r_23 + r_38 <= 1
 blue_ind_49: b_23 + b_38 <= 1
 red_ind_50: r_23 + r_39 <= 1
 blue_ind_50: b_23 + b_39 <= 1
 red_ind_51: r_24 + r_25 <= 1
 blue_ind_51: b_24 + b_25 <= 1
 red_ind_52: r_25 + r_32 <= 1
 blue_ind_52: b_25 + b_32 <= 1
 red_ind_53: r_25 + r_33 <= 1
 blue_ind_53: b_25 + b_33 <= 1
 red_ind_54: r_28 + r_36 <= 1
 blue_ind_54: b_28 + b_36 <= 1
 red_ind_55: r_28 + r_31 <= 1
 blue_ind_55: b_28 + b_31 <= 1
 red_ind_56: r_29 + r_33 <= 1
 blue_ind_56: b_29 + b_33 <= 1
 red_ind_57: r_30 + r_32 <= 1
 blue_ind_57: b_30 + b_32 <= 1
 red_ind_58: r_34 + r_39 <= 1
 blue_ind_58: b_34 + b_39 <= 1
 red_ind_59: r_35 + r_39 <= 1
 blue_ind_59: b_35 + b_39 <= 1
 red_dom_0: r_26 + r_32 + r_36 + r_0 + b_0 >= 1
 blue_dom_0: b_26 + b_32 + b_36 + r_0 + b_0 >= 1
 red_dom_1: r_11 + r_27 + r_37 + r_1 + b_1 >= 1
 blue_dom_1: b_11 + b_27 + b_37 + r_1 + b_1 >= 1
 red_dom_2: r_5 + r_6 + r_29 + r_2 + b_2 >= 1
 blue_dom_2: b_5 + b_6 + b_29 + r_2 + b_2 >= 1
 red_dom_3: r_5 + r_13 + r_22 + r_3 + b_3 >= 1
 blue_dom_3: b_5 + b_13 + b_22 + r_3 + b_3 >= 1
 red_dom_4: r_6 + r_15 + r_24 + r_4 + b_4 >= 1
 blue_dom_4: b_6 + b_15 + b_24 + r_4 + b_4 >= 1
 red_dom_5: r_2 + r_3 + r_18 + r_5 + b_5 >= 1
 blue_dom_5: b_2 + b_3 + b_18 + r_5 + b_5 >= 1
 red_dom_6: r_2 + r_4 + r_37 + r_6 + b_6 >= 1
 blue_dom_6: b_2 + b_4 + b_37 + r_6 + b_6 >= 1
 red_dom_7: r_11 + r_14 + r_30 + r_7 + b_7 >= 1
 blue_dom_7: b_11 + b_14 + b_30 + r_7 + b_7 >= 1
 red_dom_8: r_9 + r_13 + r_26 + r_8 + b_8 >= 1
 blue_dom_8: b_9 + b_13 + b_26 + r_8 + b_8 >= 1
 red_dom_9: r_8 + r_17 + r_35 + r_9 + b_9 >= 1
 blue_dom_9: b_8 + b_17 + b_35 + r_9 + b_9 >= 1
 red_dom_10: r_26 + r_28 + r_37 + r_10 + b_10 >= 1
 blue_dom_10: b_26 + b_28 + b_37 + r_10 + b_10 >= 1
 red_dom_11: r_1 + r_7 + r_15 + r_11 + b_11 >= 1
 blue_dom_11: b_1 + b_7 + b_15 + r_11 + b_11 >= 1
 red_dom_12: r_24 + r_29 + r_31 + r_12 + b_12 >= 1
 blue_dom_12: b_24 + b_29 + b_31 + r_12 + b_12 >= 1
 red_dom_13: r_3 + r_8 + r_21 + r_13 + b_13 >= 1
 blue_dom_13: b_3 + b_8 + b_21 + r_13 + b_13 >= 1
 red_dom_14: r_7 + r_17 + r_34 + r_14 + b_14 >= 1
 blue_dom_14: b_7 + b_17 + b_34 + r_14 + b_14 >= 1
 red_dom_15: r_4 + r_11 + r_31 + r_15 + b_15 >= 1
 blue_dom_15: b_4 + b_11 + b_31 + r_15 + b_15 >= 1
 red_dom_16: r_22 + r_23 + r_34 + r_16 + b_16 >= 1
 blue_dom_16: b_22 + b_23 + b_34 + r_16 + b_16 >= 1
 red_dom_17: r_9 + r_14 + r_38 + r_17 + b_17 >= 1
 blue_dom_17: b_9 + b_14 + b_38 + r_17 + b_17 >= 1
 red_dom_18: r_5 + r_27 + r_38 + r_18 + b_18 >= 1
 blue_dom_18: b_5 + b_27 + b_38 + r_18 + b_18 >= 1
 red_dom_19: r_20 + r_33 + r_36 + r_19 + b_19 >= 1
 blue_dom_19: b_20 + b_33 + b_36 + r_19 + b_19 >= 1
 red_dom_20: r_19 + r_21 + r_35 + r_20 + b_20 >= 1
 blue_dom_20: b_19 + b_21 + b_35 + r_20 + b_20 >= 1
 red_dom_21: r_13 + r_20 + r_30 + r_21 + b_21 >= 1
 blue_dom_21: b_13 + b_20 + b_30 + r_21 + b_21 >= 1
 red_dom_22: r_3 + r_16 + r_27 + r_22 + b_22 >= 1
 blue_dom_22: b_3 + b_16 + b_27 + r_22 + b_22 >= 1
 red_dom_23: r_16 + r_38 + r_39 + r_23 + b_23 >= 1
 blue_dom_23: b_16 + b_38 + b_39 + r_23 + b_23 >= 1
 red_dom_24: r_4 + r_12 + r_25 + r_24 + b_24 >= 1
 blue_dom_24: b_4 + b_12 + b_25 + r_24 + b_24 >= 1
 red_dom_25: r_24 + r_32 + r_33 + r_25 + b_25 >= 1
 blue_dom_25: b_24 + b_32 + b_33 + r_25 + b_25 >= 1
 red_dom_26: r_0 + r_8 + r_10 + r_26 + b_26 >= 1
 blue_dom_26: b_0 + b_8 + b_10 + r_26 + b_26 >= 1
 red_dom_27: r_1 + r_18 + r_22 + r_27 + b_27 >= 1
 blue_dom_27: b_1 + b_18 + b_22 + r_27 + b_27 >= 1
 red_dom_28: r_10 + r_31 + r_36 + r_28 + b_28 >= 1
 blue_dom_28: b_10 + b_31 + b_36 + r_28 + b_28 >= 1
 red_dom_29: r_2 + r_12 + r_33 + r_29 + b_29 >= 1
 blue_dom_29: b_2 + b_12 + b_33 + r_29 + b_29 >= 1
 red_dom_30: r_7 + r_21 + r_32 + r_30 + b_30 >= 1
 blue_dom_30: b_7 + b_21 + b_32 + r_30 + b_30 >= 1
 red_dom_31: r_12 + r_15 + r_28 + r_31 + b_31 >= 1
 blue_dom_31: b_12 + b_15 + b_28 + r_31 + b_31 >= 1
 red_dom_32: r_0 + r_25 + r_30 + r_32 + b_32 >= 1
 blue_dom_32: b_0 + b_25 + b_30 + r_32 + b_32 >= 1
 red_dom_33: r_19 + r_25 + r_29 + r_33 + b_33 >= 1
 blue_dom_33: b_19 + b_25 + b_29 + r_33 + b_33 >= 1
 red_dom_34: r_14 + r_16 + r_39 + r_34 + b_34 >= 1
 blue_dom_34: b_14 + b_16 + b_39 + r_34 + b_34 >= 1
 red_dom_35: r_9 + r_20 + r_39 + r_35 + b_35 >= 1
 blue_dom_35: b_9 + b_20 + b_39 + r_35 + b_35 >= 1
 red_dom_36: r_0 + r_19 + r_28 + r_36 + b_36 >= 1
 blue_dom_36: b_0 + b_19 + b_28 + r_36 + b_36 >= 1
 red_dom_37: r_1 + r_6 + r_10 + r_37 + b_37 >= 1
 blue_dom_37: b_1 + b_6 + b_10 + r_37 + b_37 >= 1
 red_dom_38: r_17 + r_18 + r_23 + r_38 + b_38 >= 1
 blue_dom_38: b_17 + b_18 + b_23 + r_38 + b_38 >= 1
 red_dom_39: r_23 + r_34 + r_35 + r_39 + b_39 >= 1
 blue_dom_39: b_23 + b_34 + b_35 + r_39 + b_39 >= 1
Binary
 r_0
 r_1
 r_2
 r_3
 r_4
 r_5
 r_6
 r_7
 r_8
 r_9
 r_10
 r_11
 r_12
 r_13
 r_14
 r_15
 r_16
 r_17
 r_18
 r_19
 r_20
 r_21
 r_22
 r_23
 r_24
 r_25
 r_26
 r_27
 r_28
 r_29
 r_30
 r_31
 r_32
 r_33
 r_34
 r_35
 r_36
 r_37
 r_38
 r_39
 b_0
 b_1
 b_2
 b_3
 b_4
 b_5
 b_6
 b_7
 b_8
 b_9
 b_10
 b_11
 b_12
 b_13
 b_14
 b_15
 b_16
 b_17
 b_18
 b_19
 b_20
 b_21
 b_22
 b_23
 b_24
 b_25
 b_26
 b_27
 b_28
 b_29
 b_30
 b_31
 b_32
 b_33
 b_34
 b_35
 b_36
 b_37
 b_38
 b_39
End
