computational_data/solutions/Reg3_n40_s5.sol
Optimal - objective value 18.00000000
      0 r_0                         1                       1
      1 r_1                         1                       1
      3 r_3                         1                       1
      4 r_4                         1                       1
     10 r_10                        1                       1
     17 r_17                        1                       1
     21 r_21                        1                       1
     29 r_29                        1                       1
     39 r_39                        1                       1
     46 b_6                         1                       1
     47 b_7                         1                       1
     48 b_8                         1                       1
     56 b_16                        1                       1
     58 b_18                        1                       1
     59 b_19                        1                       1
     65 b_25                        1                       1
     71 b_31                        1                       1
     75 b_35                        1                       1
