computational_data/logs/Reg3_n40_s5.log
Welcome to the CBC MILP Solver 
Version: 2.10.12 
Build Date: Aug 20 2024 

command line - /opt/homebrew/bin/cbc computational_data/lp/Reg3_n40_s5.lp seconds 10.0 solve solu computational_data/solutions/Reg3_n40_s5.sol (default strategy 1)
seconds was changed from 1e+100 to 10
Continuous objective value is 16 - 0.00 seconds
Cgl0004I processed model has 242 rows, 80 columns (80 integer (80 of which binary)) and 800 elements
Cutoff increment increased from 1e-05 to 0.9999
Cbc0038I Initial state - 80 integers unsatisfied sum - 16
Cbc0038I Pass   1: suminf.   16.05241 (78) obj. 16.0554 iterations 5
Cbc0038I Pass   2: suminf.   15.37415 (69) obj. 16.379 iterations 22
Cbc0038I Pass   3: suminf.   14.25000 (37) obj. 17.25 iterations 45
Cbc0038I Pass   4: suminf.   11.00000 (22) obj. 18 iterations 47
Cbc0038I Pass   5: suminf.    9.40000 (26) obj. 18 iterations 33
Cbc0038I Pass   6: suminf.    0.00000 (0) obj. 19 iterations 46
Cbc0038I Solution found of 19
Cbc0038I Before mini branch and bound, 0 integers at bound fixed and 0 continuous
Cbc0038I Full problem 242 rows 80 columns, reduced to 242 rows 80 columns - 8 fixed gives 103, 44 - ok now
Cbc0038I Full problem 242 rows 80 columns, reduced to 58 rows 27 columns
Cbc0038I Mini branch and bound did not improve solution (0.01 seconds)
Cbc0038I Round again with cutoff of 17.8001
Cbc0038I Pass   7: suminf.   16.05241 (78) obj. 16.0554 iterations 0
Cbc0038I Pass   8: suminf.   15.37415 (69) obj. 16.379 iterations 28
Cbc0038I Pass   9: suminf.   14.25000 (37) obj. 17.25 iterations 52
Cbc0038I Pass  10: suminf.   11.66667 (39) obj. 17.6667 iterations 37
Cbc0038I Pass  11: suminf.    8.69381 (49) obj. 17.8001 iterations 57
Cbc0038I Pass  12: suminf.    8.54975 (39) obj. 17.8001 iterations 8
Cbc0038I Pass  13: suminf.    8.46343 (43) obj. 17.8001 iterations 18
Cbc0038I Pass  14: suminf.    9.19991 (42) obj. 17.8001 iterations 39
Cbc0038I Pass  15: suminf.    8.70877 (49) obj. 17.8001 iterations 32
Cbc0038I Pass  16: suminf.    8.67192 (48) obj. 17.8001 iterations 9
Cbc0038I Pass  17: suminf.    8.66637 (38) obj. 17.8001 iterations 10
Cbc0038I Pass  18: suminf.    9.22858 (35) obj. 17.8001 iterations 46
Cbc0038I Pass  19: suminf.    8.08308 (48) obj. 17.8001 iterations 37
Cbc0038I Pass  20: suminf.    8.83203 (54) obj. 17.8001 iterations 45
Cbc0038I Pass  21: suminf.    8.66464 (53) obj. 17.8001 iterations 21
Cbc0038I Pass  22: suminf.    8.61352 (46) obj. 17.8001 iterations 14
Cbc0038I Pass  23: suminf.   11.19940 (43) obj. 17.8001 iterations 64
Cbc0038I Pass  24: suminf.    9.19973 (40) obj. 17.8001 iterations 41
Cbc0038I Pass  25: suminf.    8.45687 (32) obj. 17.8001 iterations 27
Cbc0038I Pass  26: suminf.    8.45687 (32) obj. 17.8001 iterations 10
Cbc0038I Pass  27: suminf.    9.85844 (53) obj. 17.8001 iterations 64
Cbc0038I Pass  28: suminf.    7.84540 (40) obj. 17.8001 iterations 37
Cbc0038I Pass  29: suminf.    6.97619 (50) obj. 17.8001 iterations 29
Cbc0038I Pass  30: suminf.    6.70576 (52) obj. 17.8001 iterations 15
Cbc0038I Pass  31: suminf.   12.29472 (54) obj. 17.8001 iterations 53
Cbc0038I Pass  32: suminf.   10.84414 (54) obj. 17.8001 iterations 35
Cbc0038I Pass  33: suminf.   10.13967 (52) obj. 17.8001 iterations 18
Cbc0038I Pass  34: suminf.    9.07528 (49) obj. 17.8001 iterations 22
Cbc0038I Pass  35: suminf.    6.23011 (35) obj. 17.8001 iterations 40
Cbc0038I Pass  36: suminf.    5.69774 (51) obj. 17.8001 iterations 26
Cbc0038I No solution found this major pass
Cbc0038I Before mini branch and bound, 0 integers at bound fixed and 0 continuous
Cbc0038I Full problem 242 rows 80 columns, reduced to 242 rows 80 columns - 7 fixed gives 106, 45 - ok now
Cbc0038I Mini branch and bound did not improve solution (0.02 seconds)
Cbc0038I After 0.02 seconds - Feasibility pump exiting with objective of 19 - took 0.02 seconds
Cbc0012I Integer solution of 19 found by feasibility pump after 0 iterations and 0 nodes (0.02 seconds)
Cbc0012I Integer solution of 18 found by DiveCoefficient after 0 iterations and 0 nodes (0.02 seconds)
Cbc0031I 2 added rows had average density of 80
Cbc0013I At root node, 2 cuts changed objective from 16 to 17 in 100 passes
Cbc0014I Cut generator 0 (Probing) - 0 row cuts average 0.0 elements, 0 column cuts (0 active)  in 0.011 seconds - new frequency is -100
Cbc0014I Cut generator 1 (Gomory) - 2463 row cuts average 79.9 elements, 0 column cuts (0 active)  in 0.058 seconds - new frequency is 1
Cbc0014I Cut generator 2 (Knapsack) - 0 row cuts average 0.0 elements, 0 column cuts (0 active)  in 0.004 seconds - new frequency is -100
Cbc0014I Cut generator 3 (Clique) - 0 row cuts average 0.0 elements, 0 column cuts (0 active)  in 0.006 seconds - new frequency is -100
Cbc0014I Cut generator 4 (MixedIntegerRounding2) - 162 row cuts average 80.0 elements, 0 column cuts (0 active)  in 0.041 seconds - new frequency is -100
Cbc0014I Cut generator 5 (FlowCover) - 0 row cuts average 0.0 elements, 0 column cuts (0 active)  in 0.001 seconds - new frequency is -100
Cbc0010I After 0 nodes, 1 on tree, 18 best solution, best possible 17 (0.32 seconds)
Cbc0038I Full problem 242 rows 80 columns, reduced to 151 rows 55 columns - 3 fixed gives 114, 44 - ok now
Cbc0001I Search completed - best objective 18, took 10002 iterations and 48 nodes (0.57 seconds)
Cbc0032I Strong branching done 812 times (18033 iterations), fathomed 7 nodes and fixed 0 variables
Cbc0035I Maximum depth 9, 0 variables fixed on reduced cost
Cuts at root node changed objective from 16 to 17
Probing was tried 100 times and created 0 cuts of which 0 were active after adding rounds of cuts (0.011 seconds)
Gomory was tried 127 times and created 2464 cuts of which 0 were active after adding rounds of cuts (0.062 seconds)
Knapsack was tried 100 times and created 0 cuts of which 0 were active after adding rounds of cuts (0.004 seconds)
Clique was tried 100 times and created 0 cuts of which 0 were active after adding rounds of cuts (0.006 seconds)
MixedIntegerRounding2 was tried 100 times and created 162 cuts of which 0 were active after adding rounds of cuts (0.041 seconds)
FlowCover was tried 100 times and created 0 cuts of which 0 were active after adding rounds of cuts (0.001 seconds)
TwoMirCuts was tried 1 times and created 0 cuts of which 0 were active after adding rounds of cuts (0.001 seconds)
ZeroHalf was tried 1 times and created 0 cuts of which 0 were active after adding rounds of cuts (0.001 seconds)

Result - Optimal solution found

Objective value:                18.00000000
Enumerated nodes:               48
Total iterations:               10002
Time (CPU seconds):             0.58
Time (Wallclock seconds):       0.59

Total time (CPU seconds):       0.58   (Wallclock seconds):       0.59

